Traveling Salesman Problem/TSP_generados/Aleatorio1621103234_5.tsp
NAME: Aleatorio1621103234_5.tsp
COMMENT: Randomly generated scenario
TYPE: TSP
DIMENSION: 5
EDGE_WEIGHT_TYPE: ATT
NODE_COORD_SECTION
1 11.43 14.47
2 19.48 15.48
3 4.35 18.15
4 29.31 15.65
5 24.59 27.01
