Traveling Salesman Problem/TSP_generados/Aleatorio1621103234_5.opt.tour
NAME: Aleatorio1621103234_5.opt.tour
COMMENT: Optimal solution for Aleatorio1621103234_5 (60.31968029374789)
TYPE: TOUR
DIMENSION: 5
TOUR_SECTION
1 2 4 5 3
-1
EOF
